<?xml version = "1.0" standalone="yes"?>
<!-- This file has been generated by DOcplex version 2.23.222  -->
<CPLEXSolution version="1.0">
 <header
   problemName="CVRP"
   objectiveValue="15405.3"
  />
 <variables>
  <variable name="x_0_1" index="0" value="1.00000"/>
  <variable name="x_0_2" index="1" value="1.00000"/>
  <variable name="x_0_3" index="2" value="1.00000"/>
  <variable name="x_0_4" index="3" value="1.00000"/>
  <variable name="x_0_6" index="5" value="1.00000"/>
  <variable name="x_0_8" index="7" value="1.00000"/>
  <variable name="x_0_9" index="8" value="1.00000"/>
  <variable name="x_0_12" index="11" value="1.00000"/>
  <variable name="x_0_14" index="13" value="1.00000"/>
  <variable name="x_0_15" index="14" value="1.00000"/>
  <variable name="x_0_17" index="16" value="1.00000"/>
  <variable name="x_0_21" index="20" value="1.00000"/>
  <variable name="x_0_22" index="21" value="1.00000"/>
  <variable name="x_0_23" index="22" value="1.00000"/>
  <variable name="x_0_24" index="23" value="1.00000"/>
  <variable name="x_1_16" index="40" value="1.00000"/>
  <variable name="x_2_13" index="62" value="1.00000"/>
  <variable name="x_3_7" index="81" value="1.00000"/>
  <variable name="x_4_0" index="100" value="1.00000"/>
  <variable name="x_5_25" index="149" value="1.00000"/>
  <variable name="x_6_10" index="159" value="1.00000"/>
  <variable name="x_7_0" index="175" value="1.00000"/>
  <variable name="x_8_18" index="217" value="1.00000"/>
  <variable name="x_9_0" index="225" value="1.00000"/>
  <variable name="x_10_0" index="250" value="1.00000"/>
  <variable name="x_11_0" index="275" value="1.00000"/>
  <variable name="x_12_0" index="300" value="1.00000"/>
  <variable name="x_13_0" index="325" value="1.00000"/>
  <variable name="x_14_0" index="350" value="1.00000"/>
  <variable name="x_15_11" index="386" value="1.00000"/>
  <variable name="x_16_0" index="400" value="1.00000"/>
  <variable name="x_17_19" index="443" value="1.00000"/>
  <variable name="x_18_0" index="450" value="1.00000"/>
  <variable name="x_19_5" index="480" value="1.00000"/>
  <variable name="x_20_0" index="500" value="1.00000"/>
  <variable name="x_21_0" index="525" value="1.00000"/>
  <variable name="x_22_0" index="550" value="1.00000"/>
  <variable name="x_23_20" index="595" value="1.00000"/>
  <variable name="x_24_0" index="600" value="1.00000"/>
  <variable name="x_25_0" index="625" value="1.00000"/>
  <variable name="u_1" index="650" value="14.00000"/>
  <variable name="u_2" index="651" value="4.00000"/>
  <variable name="u_3" index="652" value="15.00000"/>
  <variable name="u_4" index="653" value="32.00000"/>
  <variable name="u_5" index="654" value="24.00000"/>
  <variable name="u_6" index="655" value="23.00000"/>
  <variable name="u_7" index="656" value="18.00000"/>
  <variable name="u_8" index="657" value="20.00000"/>
  <variable name="u_9" index="658" value="32.00000"/>
  <variable name="u_10" index="659" value="32.00000"/>
  <variable name="u_11" index="660" value="32.00000"/>
  <variable name="u_12" index="661" value="32.00000"/>
  <variable name="u_13" index="662" value="29.00000"/>
  <variable name="u_14" index="663" value="30.00000"/>
  <variable name="u_15" index="664" value="15.00000"/>
  <variable name="u_16" index="665" value="27.00000"/>
  <variable name="u_17" index="666" value="2.00000"/>
  <variable name="u_18" index="667" value="32.00000"/>
  <variable name="u_19" index="668" value="7.00000"/>
  <variable name="u_20" index="669" value="27.00000"/>
  <variable name="u_21" index="670" value="32.00000"/>
  <variable name="u_22" index="671" value="32.00000"/>
  <variable name="u_23" index="672" value="12.00000"/>
  <variable name="u_24" index="673" value="21.00000"/>
  <variable name="u_25" index="674" value="32.00000"/>
 </variables>
</CPLEXSolution>
